NAME : instance_16_900
TYPE : TSP
DIMENSION : 16
EDGE_WEIGHT_TYPE : EUC_2D
LOWER : 0
UPPER : 100
NODE_COORD_SECTION
1 41.4507436333 19.1313227173
2 71.8531564809 49.939852627
3 84.3789609149 4.6542554628
4 75.6749443943 57.6842747862
5 99.228713708 43.6332572717
6 46.591897076 39.6240910282
7 75.876913988 77.352598682
8 3.5434355028 39.6763177123
9 44.5150694577 13.2758218097
10 85.4529859731 38.4685334051
11 33.3122964948 56.6212616395
12 98.0068026576 56.5286102006
13 60.255839536 22.6290479302
14 0.1231849194 27.3962052539
15 12.8890934866 26.7289617332
16 3.8842449198 67.3000059323
EOF
